59430.2
1538 1535 1534 1536 1776 1774 1775 1777 1778 1780 1779 1784 1781 1783 1782 1809 1810 1811 1812 1813 1814 1815 1816 0 1 2 6 7 8 9 10 11 12 13 14 15 16 17 5 3 4 1808 1807 1806 1805 1804 1803 1802 1787 1786 1785 1539 1540 1541 1542 1547 1546 1545 1529 1530 1527 1528 1511 1510 1509 1508 1507 1497 1498 1499 1491 1496 1495 1494 1564 1563 1562 1561 1568 1567 1566 1569 1570 1571 1572 1573 1574 1565 1493 1492 1575 1576 1577 1578 1579 1580 1581 1582 1583 1584 1585 1589 1588 1587 1586 1594 1593 1592 1591 1590 1596 1595 1214 1215 1218 1217 1216 1209 1210 1211 1212 1213 1597 1598 1602 1603 1604 1605 1606 1607 1608 1609 1610 1611 1601 1600 1599 1618 1617 1616 1613 1612 1614 1615 1624 1623 1622 1185 1186 1187 1188 1183 1189 1190 1182 1184 1619 1620 1621 1628 1627 1625 1626 1629 1630 1632 1633 1631 1634 1636 1637 1635 1638 1639 1643 1642 1640 1641 1171 1170 1169 1168 1172 1173 1174 1177 1178 1175 1176 1179 1180 1181 1273 1274 1275 1276 1272 1271 1270 1269 1263 1262 1277 1286 1285 1284 1283 1282 1382 1381 1380 1281 1280 1279 1278 1287 1288 1289 1290 1291 1292 1293 1294 1295 1296 1297 1379 1302 1301 1300 1299 1298 1140 1139 1138 1137 1143 1142 1141 1136 1135 1134 1128 1127 1303 1304 1305 1306 1311 1312 1313 1314 1315 1316 1333 1334 1335 1320 1319 1318 1317 1310 1309 1308 1307 1092 1093 1094 1091 1090 1089 1321 1322 1323 1324 1325 1326 1327 1328 1329 1330 1331 1332 1370 1371 1372 1373 1374 1375 1376 1377 1378 1361 1362 1363 1364 1365 1366 1367 1368 1369 1343 1344 1345 1346 1352 1351 1350 1349 1348 386 387 388 389 390 393 392 391 1354 1353 1355 1356 1357 1347 1358 1359 1360 1391 1390 1389 1388 1385 1384 1383 1387 1386 1396 1395 1394 1393 1392 1401 1400 1399 1398 1397 1260 1261 1259 1258 1257 1256 1264 1265 1266 1267 1268 1192 1191 1193 1194 1195 1196 1254 1255 1203 1202 1201 1200 1199 1198 1197 1208 1207 1206 1205 1204 1250 1249 1251 1252 1253 1233 1234 1235 1236 1237 1238 1239 1240 1241 1242 1243 1232 1246 1247 1248 1245 1244 1231 1230 1229 1228 1227 1225 1224 1223 1222 1220 1219 1221 1446 1457 1458 1459 1461 1460 1462 1463 1464 1465 1466 1447 1456 1455 1445 1444 1443 1442 1441 1440 1439 1438 1437 1436 1435 469 1425 468 1421 1422 1426 1424 1423 1434 1433 1432 1431 1226 1430 1429 1428 1427 1415 1416 1417 1418 1419 1420 1408 1409 1410 1411 1412 1413 1414 1402 1403 1404 1405 1406 1407 447 448 449 450 451 455 456 454 453 452 444 445 446 443 442 441 440 439 438 437 431 432 433 434 435 436 407 406 405 403 401 399 394 395 396 397 398 400 402 404 408 422 421 420 419 409 410 411 378 377 376 375 374 373 372 1035 1034 1033 1032 1031 1030 1029 1028 412 413 414 415 416 417 418 423 430 429 428 427 426 425 424 1027 1026 1025 1024 1023 1022 1021 987 986 1039 1040 1041 1042 1043 1044 971 970 1045 1046 1047 1048 1038 1037 1036 1049 1050 1051 1052 1053 1054 1055 1056 343 344 345 346 347 348 349 353 350 342 340 338 337 1069 336 335 339 341 351 352 355 354 365 366 364 369 367 368 371 379 382 383 385 384 381 380 370 359 363 362 361 360 1342 1341 1340 1339 1338 1337 1336 358 357 356 332 333 334 331 330 329 328 1072 1073 1074 1075 1081 1082 1083 1084 1085 1086 1080 1079 1078 1077 1076 319 312 311 310 309 308 307 306 305 304 1110 1111 1112 1113 1114 1115 1116 1117 1099 1100 1101 1102 1109 1108 1107 1106 1105 1103 1104 1087 1088 1095 1096 1097 1098 1118 1119 1120 1121 1122 1126 1125 1124 1123 1129 1130 1131 1133 1132 1155 1156 1157 1158 1159 1160 1161 1162 1163 1164 1167 1165 1166 1650 1649 1651 1648 1647 1652 1653 1654 1656 1657 1655 1659 1658 1661 1660 1663 1662 1670 1668 1669 1667 1666 1664 1665 1150 1149 1148 1151 1147 1152 1154 1153 1144 1145 1146 279 280 278 277 276 275 274 273 267 266 265 264 263 256 255 254 253 252 251 250 249 240 233 234 235 236 1682 1681 1680 1679 1675 237 238 239 1671 1672 1673 1674 1646 1645 1644 1678 1677 1676 1687 1686 1685 1683 1684 226 227 225 232 231 230 229 228 133 132 224 134 135 136 137 138 139 223 222 221 220 219 218 217 140 141 142 143 144 145 213 214 215 216 1688 1689 1690 1691 1692 1693 1694 1695 1696 1697 1698 1699 1700 1710 1709 1708 1707 1706 1705 1704 1703 1702 1701 1713 1712 1711 208 207 206 205 204 150 209 210 211 212 146 147 148 149 151 152 153 203 202 201 200 199 1714 1715 1716 1717 1718 1723 1722 1721 1720 1719 1724 1725 1726 196 197 198 156 155 154 157 158 159 160 193 194 190 161 162 163 189 164 165 166 168 167 185 184 183 182 186 187 188 191 192 195 1727 1728 1729 1730 1731 1732 1733 1734 1735 1736 1737 1738 1739 1749 1748 1750 1751 1752 1747 1746 1745 1744 1743 1742 1741 1740 1758 1759 1757 1756 1755 1754 1753 1762 1761 1760 1558 1559 1560 1557 1550 1549 1548 1551 1553 1554 1552 1556 1555 1769 1768 1773 1772 1771 1764 1770 1767 1766 1763 1765 1788 1789 1790 1791 1792 1793 1794 1795 1796 1801 1800 1799 1797 1798 172 173 174 175 176 177 178 179 180 181 171 170 169 18 19 20 21 22 23 24 25 26 27 28 29 30 31 32 33 34 35 36 37 40 39 38 46 47 48 49 50 45 44 43 41 42 53 52 51 60 61 62 63 59 58 57 56 55 54 68 69 67 66 65 64 70 71 72 73 74 75 76 77 78 79 85 86 87 88 89 84 83 82 80 81 90 93 94 95 96 97 98 99 100 101 102 103 91 92 104 105 106 107 108 109 110 111 112 127 114 115 113 117 118 116 119 120 122 121 123 124 125 128 129 130 131 241 243 242 126 244 245 246 247 248 257 258 259 260 261 262 268 269 270 271 272 281 282 283 284 285 286 287 290 288 289 291 293 292 294 295 297 296 299 298 300 301 303 302 314 313 316 315 317 318 321 320 322 323 325 324 326 327 1071 1070 1067 1068 1066 1065 1063 1064 1062 1061 1060 1059 1057 1058 968 969 967 966 964 965 963 962 960 961 959 958 956 957 936 937 938 939 940 941 942 943 935 944 945 946 947 948 949 954 955 952 953 950 951 905 906 904 903 901 902 900 899 898 897 896 895 894 893 892 876 877 878 879 880 881 882 883 884 849 850 885 886 887 888 889 890 891 861 862 863 864 869 860 859 870 871 875 874 872 852 873 851 844 845 843 842 848 841 846 853 917 916 915 854 855 856 857 858 865 866 867 868 909 910 911 912 913 914 927 928 929 930 931 908 907 932 933 934 925 924 923 922 926 921 920 919 663 664 665 666 667 668 669 799 800 801 802 803 804 918 805 806 807 798 797 796 795 791 792 793 794 813 812 811 810 809 808 839 840 847 838 837 836 825 826 827 828 829 830 831 823 824 832 833 834 835 814 815 816 817 818 819 820 821 822 772 771 790 775 774 773 770 769 768 762 763 764 765 766 759 760 761 767 751 752 753 750 754 755 756 757 758 743 744 745 746 747 748 749 739 740 741 738 737 742 734 735 733 736 723 724 725 732 728 729 730 731 727 726 722 719 718 720 721 717 716 715 714 713 712 711 601 600 599 598 597 596 595 605 604 603 602 710 709 708 707 606 607 608 609 610 701 702 703 704 705 706 698 699 700 692 691 690 689 688 686 687 685 683 684 693 695 697 696 694 783 784 785 786 787 788 789 776 777 778 779 780 781 782 681 682 630 631 632 633 636 635 634 680 679 678 677 676 675 672 671 670 662 661 660 659 658 657 656 655 654 653 673 674 651 652 1000 1001 1002 1003 1004 1005 979 980 981 978 977 976 975 974 972 973 982 983 984 985 988 989 990 991 992 993 994 995 996 1006 998 999 1017 1016 1010 1015 1018 1007 997 1020 1019 1008 1009 1014 1013 1012 1011 650 649 648 646 647 645 644 643 642 641 640 639 638 637 629 628 627 626 625 624 623 622 621 620 619 618 617 611 612 616 615 614 613 457 458 589 590 591 592 593 594 585 586 587 588 459 460 461 462 467 466 465 464 463 574 576 575 578 579 584 582 583 581 580 577 567 560 559 568 569 570 573 572 571 554 553 555 556 557 558 561 564 566 565 562 563 547 546 548 550 551 552 520 549 529 530 534 535 545 544 543 537 538 539 540 542 541 536 533 532 531 528 523 524 522 527 521 519 518 517 516 526 525 515 512 514 513 511 508 510 509 507 504 506 503 505 499 500 498 496 495 497 492 491 488 487 489 490 493 494 477 474 473 501 502 472 471 470 475 476 478 479 481 482 483 484 480 485 486 1451 1450 1452 1453 1449 1454 1448 1467 1468 1471 1469 1470 1472 1475 1473 1474 1476 1477 1479 1478 1480 1482 1481 1483 1484 1485 1487 1486 1489 1488 1490 1500 1501 1502 1503 1504 1505 1506 1514 1515 1513 1512 1516 1518 1517 1519 1520 1521 1522 1526 1525 1523 1524 1532 1533 1531 1544 1543 1537 